NAME : LPS-n28-m245
COMMENT : (Lartu-Peter-Santi Plot, instance 10245 out of 39200. 28 customers.)
TYPE : CVRP
DIMENSION : 28
EDGE_WEIGHT_TYPE : EUC_2D
CAPACITY : 114
NODE_COORD_SECTION
 1 26 38
 2 31 39
 3 57 34
 4 68 19
 5 2 45
 6 37 37
 7 97 65
 8 29 52
 9 93 84
 10 65 61
 11 34 53
 12 50 58
 13 82 92
 14 10 35
 15 76 32
 16 96 17
 17 53 52
 18 7 54
 19 70 9
 20 34 93
 21 12 30
 22 89 89
 23 32 86
 24 8 28
 25 38 56
 26 4 39
 27 53 62
 28 1 2
DEMAND_SECTION
1 0
2 55
3 67
4 57
5 62
6 105
7 60
8 2
9 44
10 38
11 63
12 23
13 93
14 10
15 35
16 27
17 29
18 36
19 46
20 110
21 18
22 68
23 60
24 111
25 61
26 18
27 107
28 10
DEPOT_SECTION
 1
 -1
EOF
